; Options: -in -smt2
(set-option :produce-unsat-assumptions true)

(declare-fun start!1153 () Bool)

(assert start!1153)

(declare-fun res!4222 () Bool)

(declare-fun e!2777 () Bool)

(assert (=> start!1153 (=> (not res!4222) (not e!2777))))

(declare-fun jz!67 () (_ BitVec 32))

(declare-datatypes ((array!429 0))(
  ( (array!430 (arr!189 (Array (_ BitVec 32) (_ FloatingPoint 11 53))) (size!189 (_ BitVec 32))) )
))
(declare-fun qq!69 () array!429)

(assert (=> start!1153 (= res!4222 (and (bvsle #b00000000000000000000000000000000 jz!67) (bvslt jz!67 #b00000000000000000000000000010100) (= (size!189 qq!69) #b00000000000000000000000000010100)))))

(assert (=> start!1153 e!2777))

(assert (=> start!1153 true))

(declare-fun array_inv!139 (array!429) Bool)

(assert (=> start!1153 (array_inv!139 qq!69)))

(declare-fun b!5349 () Bool)

(declare-fun res!4223 () Bool)

(assert (=> b!5349 (=> (not res!4223) (not e!2777))))

(declare-fun qqInv!0 (array!429) Bool)

(assert (=> b!5349 (= res!4223 (qqInv!0 qq!69))))

(declare-fun b!5350 () Bool)

(assert (=> b!5350 (= e!2777 false)))

(assert (= (and start!1153 res!4222) b!5349))

(assert (= (and b!5349 res!4223) b!5350))

(declare-fun m!8375 () Bool)

(assert (=> start!1153 m!8375))

(declare-fun m!8377 () Bool)

(assert (=> b!5349 m!8377))

(declare-fun m!8379 () Bool)

(assert (=> b!5350 m!8379))

(declare-fun m!8381 () Bool)

(assert (=> b!5350 m!8381))

(declare-fun m!8383 () Bool)

(assert (=> b!5350 m!8383))

(declare-fun m!8385 () Bool)

(assert (=> b!5350 m!8385))

(declare-fun m!8387 () Bool)

(assert (=> b!5350 m!8387))

(declare-fun m!8389 () Bool)

(assert (=> b!5350 m!8389))

(declare-fun m!8391 () Bool)

(assert (=> b!5350 m!8391))

(declare-fun m!8393 () Bool)

(assert (=> b!5350 m!8393))

(declare-fun m!8395 () Bool)

(assert (=> b!5350 m!8395))

(declare-fun m!8397 () Bool)

(assert (=> b!5350 m!8397))

(declare-fun m!8399 () Bool)

(assert (=> b!5350 m!8399))

(declare-fun m!8401 () Bool)

(assert (=> b!5350 m!8401))

(check-sat (not b!5349) (not start!1153))
(check-sat)
